500
125 125
1 100 885
2 100 8
3 100 217
4 100 713
5 100 305
6 99 546
7 99 164
8 99 496
9 99 885
10 99 253
11 98 200
12 98 721
13 98 768
14 98 130
15 97 226
16 97 582
17 97 212
18 96 289
19 96 671
20 96 965
21 96 754
22 96 318
23 95 584
24 95 901
25 95 596
26 94 799
27 94 487
28 94 77
29 94 109
30 94 551
31 94 727
32 94 719
33 93 757
34 93 721
35 93 119
36 93 769
37 93 272
38 93 192
39 92 390
40 92 787
41 92 731
42 91 251
43 91 739
44 91 388
45 91 550
46 90 60
47 90 356
48 90 623
49 90 521
50 89 53
51 89 749
52 89 259
53 89 211
54 89 397
55 89 405
56 89 218
57 89 565
58 89 391
59 88 884
60 88 814
61 88 587
62 88 286
63 87 762
64 87 335
65 87 701
66 87 34
67 87 734
68 87 989
69 87 435
70 87 654
71 86 917
72 86 756
73 86 595
74 85 73
75 85 932
76 84 378
77 84 98
78 84 881
79 84 426
80 84 575
81 84 442
82 84 916
83 84 421
84 84 340
85 84 178
86 84 114
87 83 275
88 83 392
89 83 173
90 83 507
91 83 724
92 83 889
93 83 805
94 82 619
95 82 324
96 82 669
97 82 370
98 82 110
99 82 41
100 82 256
101 81 562
102 81 101
103 81 240
104 80 985
105 80 463
106 80 284
107 80 379
108 80 786
109 80 609
110 80 796
111 79 175
112 79 481
113 78 965
114 78 182
115 78 43
116 78 929
117 78 694
118 77 555
119 77 315
120 77 832
121 77 362
122 77 782
123 77 265
124 77 343
125 76 14
126 76 285
127 76 294
128 76 711
129 76 289
130 76 451
131 76 864
132 75 324
133 75 944
134 75 704
135 75 18
136 75 540
137 75 655
138 75 705
139 75 932
140 75 272
141 74 932
142 74 173
143 74 757
144 74 679
145 74 742
146 74 63
147 74 170
148 73 627
149 73 328
150 73 154
151 73 406
152 72 747
153 72 75
154 72 993
155 71 868
156 71 114
157 71 65
158 71 132
159 71 16
160 71 541
161 70 826
162 70 370
163 70 372
164 70 761
165 70 35
166 69 363
167 69 18
168 69 938
169 69 885
170 69 857
171 69 167
172 68 387
173 68 419
174 68 865
175 68 146
176 68 937
177 68 664
178 68 419
179 68 219
180 68 120
181 67 354
182 67 905
183 67 855
184 67 826
185 67 947
186 67 203
187 66 504
188 66 71
189 66 505
190 66 241
191 65 585
192 65 822
193 65 739
194 64 447
195 64 663
196 64 994
197 64 995
198 64 107
199 63 248
200 63 954
201 63 230
202 63 972
203 62 678
204 62 761
205 62 175
206 62 633
207 62 588
208 62 788
209 61 867
210 61 906
211 61 997
212 61 410
213 60 652
214 60 677
215 60 335
216 60 717
217 60 1000
218 60 478
219 59 550
220 59 415
221 59 261
222 59 590
223 59 257
224 59 210
225 59 758
226 59 856
227 59 171
228 58 376
229 58 918
230 58 443
231 58 90
232 58 217
233 57 551
234 57 483
235 57 416
236 57 234
237 57 823
238 56 624
239 56 797
240 56 858
241 56 207
242 56 700
243 56 382
244 56 639
245 56 634
246 55 167
247 55 266
248 55 980
249 55 508
250 55 626
251 55 95
252 55 800
253 54 690
254 54 464
255 54 687
256 54 667
257 54 284
258 54 609
259 54 897
260 53 562
261 53 287
262 53 933
263 53 364
264 52 355
265 52 943
266 52 725
267 52 338
268 51 412
269 51 890
270 51 394
271 51 751
272 51 238
273 51 137
274 51 406
275 50 529
276 50 616
277 50 163
278 50 320
279 49 830
280 49 506
281 49 685
282 49 8
283 48 577
284 48 392
285 48 206
286 48 227
287 47 984
288 47 473
289 46 865
290 46 242
291 46 980
292 46 56
293 46 178
294 46 63
295 46 681
296 45 606
297 45 424
298 45 808
299 45 713
300 45 914
301 45 299
302 45 842
303 44 359
304 44 332
305 44 734
306 44 202
307 44 326
308 43 859
309 43 251
310 43 469
311 43 122
312 42 38
313 42 327
314 42 837
315 42 953
316 42 388
317 42 37
318 42 119
319 42 882
320 42 200
321 42 962
322 41 851
323 41 523
324 41 127
325 41 522
326 41 360
327 41 221
328 40 107
329 40 281
330 40 972
331 40 970
332 40 644
333 40 258
334 40 990
335 39 270
336 39 837
337 39 24
338 39 728
339 39 834
340 39 54
341 38 334
342 38 553
343 38 869
344 38 857
345 38 136
346 38 830
347 38 617
348 37 635
349 37 430
350 37 813
351 37 362
352 37 199
353 37 331
354 36 512
355 36 495
356 36 56
357 36 514
358 36 588
359 36 538
360 35 279
361 35 679
362 34 514
363 34 440
364 34 310
365 34 80
366 34 951
367 34 648
368 34 993
369 34 457
370 34 292
371 33 800
372 33 3
373 33 490
374 33 248
375 33 630
376 33 869
377 33 278
378 33 680
379 33 812
380 32 123
381 32 800
382 32 646
383 32 979
384 31 529
385 31 945
386 31 420
387 31 973
388 31 749
389 31 745
390 30 491
391 30 801
392 30 105
393 29 426
394 29 831
395 29 479
396 29 23
397 28 592
398 28 426
399 28 915
400 28 334
401 27 978
402 27 539
403 27 450
404 27 576
405 27 414
406 27 996
407 27 714
408 26 803
409 26 106
410 26 664
411 26 451
412 26 812
413 26 447
414 26 986
415 26 135
416 26 50
417 26 926
418 25 764
419 25 662
420 25 723
421 25 911
422 25 134
423 25 60
424 25 64
425 25 931
426 24 949
427 24 219
428 24 924
429 24 912
430 24 629
431 23 760
432 23 903
433 23 113
434 23 244
435 23 538
436 22 932
437 22 416
438 22 360
439 22 810
440 21 193
441 21 113
442 21 831
443 21 452
444 20 790
445 20 990
446 20 625
447 20 70
448 20 261
449 20 499
450 20 922
451 20 311
452 19 590
453 19 805
454 19 766
455 19 751
456 19 596
457 19 541
458 19 743
459 18 613
460 18 755
461 18 988
462 18 572
463 18 217
464 17 398
465 17 904
466 17 189
467 17 160
468 16 324
469 16 263
470 16 412
471 16 828
472 16 381
473 15 864
474 15 366
475 15 869
476 15 721
477 15 6
478 14 877
479 14 298
480 14 356
481 14 596
482 14 811
483 14 760
484 14 577
485 14 387
486 14 679
487 14 330
488 14 185
489 14 686
490 13 888
491 13 297
492 13 71
493 13 412
494 12 797
495 12 454
496 12 254
497 12 842
498 12 877
499 12 901
500 12 862
